files/upTests/n2/0002.eprime.solution
language ESSENCE' 1.0
$ minion Nodes: 7
$ minion TotalTime: 0.003648
$ Savile Row TotalTime: 0.921
letting x_SetExplicitVarSize_tuple2_SetExplicitVarSizeWithDefault be [[0, 1;int(1..2)], 
[0, 1;int(1..2)], 
[0, 1;int(1..2)], 
[0, 2;int(1..2)];int(1..4)]
letting x_SetExplicitVarSize_tuple1 be [false, false, false, true;int(1..4)]
